lbl,CUST NO.,READY TIME,XCOORD.,YCOORD.,DEMAND,DUE DATE,SERVICE TIME
16,60,77,1,34,20,132,90
16,82,148,2,28,10,199,90
16,180,241,0,27,30,292,90
16,84,333,1,24,10,385,90
16,191,414,4,23,10,491,90
16,125,516,6,25,10,574,90
16,4,616,4,28,10,661,90
16,72,693,4,30,40,768,90
